NAME : portcgen-20-11
COMMENT : portcgen N=20, seed=11
TYPE : TSP
DIMENSION : 20
EDGE_WEIGHT_TYPE : EUC_2D
NODE_COORD_SECTION
1 -393332 -2003
2 93642 -279487
3 -350289 73628
4 -191000 14991
5 182630 -166167
6 98602 -608951
7 187405 -118083
8 225148 366226
9 81720 -136098
10 -137240 -224950
11 35376 30731
12 87319 303290
13 -417073 -228892
14 394781 255203
15 40205 -20448
16 -196837 209701
17 309754 -177283
18 273562 44131
19 -154550 -174700
20 36256 395285
